
(set-option :produce-models true)
(set-option :inline-size-limit 10000)

(declare-const var0 String)

(push 1)
(assert (str.in.re var0 (re.* (re.range "\x01" "\xff"))))
(assert (str.in.re var0 (re.++ (re.++ re.begin-anchor (re.++ ((_ re.capture 1) (re.union (re.union ((_ re.capture 2) ((_ re.loop 0 1) (re.range "0" "9"))) ((_ re.capture 3) (re.++ ((_ re.loop 0 1) (re.range "0" "9")) ((_ re.loop 0 1) (re.range "0" "9"))))) ((_ re.capture 4) (re.++ ((_ re.loop 0 1) (re.range "1" "3")) (re.++ ((_ re.loop 0 1) (re.range "0" "6")) ((_ re.loop 0 1) (re.range "0" "5"))))))) (re.++ (str.to.re "d") (re.++ ((_ re.capture 5) (re.union (re.union ((_ re.capture 6) ((_ re.loop 0 1) (re.range "0" "9"))) ((_ re.capture 7) (re.++ (str.to.re "1") ((_ re.loop 0 1) (re.range "0" "9"))))) ((_ re.capture 8) (re.++ ((_ re.loop 0 1) (re.range "1" "2")) ((_ re.loop 0 1) (re.range "0" "3")))))) (re.++ (str.to.re "h") (re.++ ((_ re.capture 9) (re.union ((_ re.capture 10) ((_ re.loop 0 1) (re.range "0" "9"))) ((_ re.capture 11) (re.++ ((_ re.loop 0 1) (re.range "1" "5")) ((_ re.loop 0 1) (re.range "0" "9")))))) (str.to.re "m"))))))) re.end-anchor)))	; match!==null
(assert (not (str.in.re ((_ str.extract 1) var0 (re.++ (re.++ re.begin-anchor (re.++ ((_ re.capture 1) (re.union (re.union ((_ re.capture 2) ((_ re.loop 0 1) (re.range "0" "9"))) ((_ re.capture 3) (re.++ ((_ re.loop 0 1) (re.range "0" "9")) ((_ re.loop 0 1) (re.range "0" "9"))))) ((_ re.capture 4) (re.++ ((_ re.loop 0 1) (re.range "1" "3")) (re.++ ((_ re.loop 0 1) (re.range "0" "6")) ((_ re.loop 0 1) (re.range "0" "5"))))))) (re.++ (str.to.re "d") (re.++ ((_ re.capture 5) (re.union (re.union ((_ re.capture 6) ((_ re.loop 0 1) (re.range "0" "9"))) ((_ re.capture 7) (re.++ (str.to.re "1") ((_ re.loop 0 1) (re.range "0" "9"))))) ((_ re.capture 8) (re.++ ((_ re.loop 0 1) (re.range "1" "2")) ((_ re.loop 0 1) (re.range "0" "3")))))) (re.++ (str.to.re "h") (re.++ ((_ re.capture 9) (re.union ((_ re.capture 10) ((_ re.loop 0 1) (re.range "0" "9"))) ((_ re.capture 11) (re.++ ((_ re.loop 0 1) (re.range "1" "5")) ((_ re.loop 0 1) (re.range "0" "9")))))) (str.to.re "m"))))))) re.end-anchor)) (str.to.re "\x00"))))
;match[1]!==null
(assert (str.in.re ((_ str.extract 1) var0 (re.++ (re.++ re.begin-anchor (re.++ ((_ re.capture 1) (re.union (re.union ((_ re.capture 2) ((_ re.loop 0 1) (re.range "0" "9"))) ((_ re.capture 3) (re.++ ((_ re.loop 0 1) (re.range "0" "9")) ((_ re.loop 0 1) (re.range "0" "9"))))) ((_ re.capture 4) (re.++ ((_ re.loop 0 1) (re.range "1" "3")) (re.++ ((_ re.loop 0 1) (re.range "0" "6")) ((_ re.loop 0 1) (re.range "0" "5"))))))) (re.++ (str.to.re "d") (re.++ ((_ re.capture 5) (re.union (re.union ((_ re.capture 6) ((_ re.loop 0 1) (re.range "0" "9"))) ((_ re.capture 7) (re.++ (str.to.re "1") ((_ re.loop 0 1) (re.range "0" "9"))))) ((_ re.capture 8) (re.++ ((_ re.loop 0 1) (re.range "1" "2")) ((_ re.loop 0 1) (re.range "0" "3")))))) (re.++ (str.to.re "h") (re.++ ((_ re.capture 9) (re.union ((_ re.capture 10) ((_ re.loop 0 1) (re.range "0" "9"))) ((_ re.capture 11) (re.++ ((_ re.loop 0 1) (re.range "1" "5")) ((_ re.loop 0 1) (re.range "0" "9")))))) (str.to.re "m"))))))) re.end-anchor)) (re.++ re.all(re.+ (re.range "a" "z")) re.all) ))
;/[a-z]+/.test(match[1]) == true
(check-sat)
(get-model)
(pop 1)
(push 1)
(assert (str.in.re var0 (re.* (re.range "\x01" "\xff"))))
(assert (str.in.re var0 (re.++ (re.++ re.begin-anchor (re.++ ((_ re.capture 1) (re.union (re.union ((_ re.capture 2) ((_ re.loop 0 1) (re.range "0" "9"))) ((_ re.capture 3) (re.++ ((_ re.loop 0 1) (re.range "0" "9")) ((_ re.loop 0 1) (re.range "0" "9"))))) ((_ re.capture 4) (re.++ ((_ re.loop 0 1) (re.range "1" "3")) (re.++ ((_ re.loop 0 1) (re.range "0" "6")) ((_ re.loop 0 1) (re.range "0" "5"))))))) (re.++ (str.to.re "d") (re.++ ((_ re.capture 5) (re.union (re.union ((_ re.capture 6) ((_ re.loop 0 1) (re.range "0" "9"))) ((_ re.capture 7) (re.++ (str.to.re "1") ((_ re.loop 0 1) (re.range "0" "9"))))) ((_ re.capture 8) (re.++ ((_ re.loop 0 1) (re.range "1" "2")) ((_ re.loop 0 1) (re.range "0" "3")))))) (re.++ (str.to.re "h") (re.++ ((_ re.capture 9) (re.union ((_ re.capture 10) ((_ re.loop 0 1) (re.range "0" "9"))) ((_ re.capture 11) (re.++ ((_ re.loop 0 1) (re.range "1" "5")) ((_ re.loop 0 1) (re.range "0" "9")))))) (str.to.re "m"))))))) re.end-anchor)))	; match!==null
(assert (not (str.in.re ((_ str.extract 1) var0 (re.++ (re.++ re.begin-anchor (re.++ ((_ re.capture 1) (re.union (re.union ((_ re.capture 2) ((_ re.loop 0 1) (re.range "0" "9"))) ((_ re.capture 3) (re.++ ((_ re.loop 0 1) (re.range "0" "9")) ((_ re.loop 0 1) (re.range "0" "9"))))) ((_ re.capture 4) (re.++ ((_ re.loop 0 1) (re.range "1" "3")) (re.++ ((_ re.loop 0 1) (re.range "0" "6")) ((_ re.loop 0 1) (re.range "0" "5"))))))) (re.++ (str.to.re "d") (re.++ ((_ re.capture 5) (re.union (re.union ((_ re.capture 6) ((_ re.loop 0 1) (re.range "0" "9"))) ((_ re.capture 7) (re.++ (str.to.re "1") ((_ re.loop 0 1) (re.range "0" "9"))))) ((_ re.capture 8) (re.++ ((_ re.loop 0 1) (re.range "1" "2")) ((_ re.loop 0 1) (re.range "0" "3")))))) (re.++ (str.to.re "h") (re.++ ((_ re.capture 9) (re.union ((_ re.capture 10) ((_ re.loop 0 1) (re.range "0" "9"))) ((_ re.capture 11) (re.++ ((_ re.loop 0 1) (re.range "1" "5")) ((_ re.loop 0 1) (re.range "0" "9")))))) (str.to.re "m"))))))) re.end-anchor)) (str.to.re "\x00"))))	
;match[1]!==null
(assert (not (str.in.re ((_ str.extract 1) var0 (re.++ (re.++ re.begin-anchor (re.++ ((_ re.capture 1) (re.union (re.union ((_ re.capture 2) ((_ re.loop 0 1) (re.range "0" "9"))) ((_ re.capture 3) (re.++ ((_ re.loop 0 1) (re.range "0" "9")) ((_ re.loop 0 1) (re.range "0" "9"))))) ((_ re.capture 4) (re.++ ((_ re.loop 0 1) (re.range "1" "3")) (re.++ ((_ re.loop 0 1) (re.range "0" "6")) ((_ re.loop 0 1) (re.range "0" "5"))))))) (re.++ (str.to.re "d") (re.++ ((_ re.capture 5) (re.union (re.union ((_ re.capture 6) ((_ re.loop 0 1) (re.range "0" "9"))) ((_ re.capture 7) (re.++ (str.to.re "1") ((_ re.loop 0 1) (re.range "0" "9"))))) ((_ re.capture 8) (re.++ ((_ re.loop 0 1) (re.range "1" "2")) ((_ re.loop 0 1) (re.range "0" "3")))))) (re.++ (str.to.re "h") (re.++ ((_ re.capture 9) (re.union ((_ re.capture 10) ((_ re.loop 0 1) (re.range "0" "9"))) ((_ re.capture 11) (re.++ ((_ re.loop 0 1) (re.range "1" "5")) ((_ re.loop 0 1) (re.range "0" "9")))))) (str.to.re "m"))))))) re.end-anchor)) (re.++ re.all(re.+ (re.range "a" "z")) re.all) )))
;/[a-z]+/.test(match[1]) == false	
(check-sat)
(get-model)
(pop 1)
(push 1)
(assert (str.in.re var0 (re.* (re.range "\x01" "\xff"))))
(assert (str.in.re var0 (re.++ (re.++ re.begin-anchor (re.++ ((_ re.capture 1) (re.union (re.union ((_ re.capture 2) ((_ re.loop 0 1) (re.range "0" "9"))) ((_ re.capture 3) (re.++ ((_ re.loop 0 1) (re.range "0" "9")) ((_ re.loop 0 1) (re.range "0" "9"))))) ((_ re.capture 4) (re.++ ((_ re.loop 0 1) (re.range "1" "3")) (re.++ ((_ re.loop 0 1) (re.range "0" "6")) ((_ re.loop 0 1) (re.range "0" "5"))))))) (re.++ (str.to.re "d") (re.++ ((_ re.capture 5) (re.union (re.union ((_ re.capture 6) ((_ re.loop 0 1) (re.range "0" "9"))) ((_ re.capture 7) (re.++ (str.to.re "1") ((_ re.loop 0 1) (re.range "0" "9"))))) ((_ re.capture 8) (re.++ ((_ re.loop 0 1) (re.range "1" "2")) ((_ re.loop 0 1) (re.range "0" "3")))))) (re.++ (str.to.re "h") (re.++ ((_ re.capture 9) (re.union ((_ re.capture 10) ((_ re.loop 0 1) (re.range "0" "9"))) ((_ re.capture 11) (re.++ ((_ re.loop 0 1) (re.range "1" "5")) ((_ re.loop 0 1) (re.range "0" "9")))))) (str.to.re "m"))))))) re.end-anchor)))	; match!==null
(assert (str.in.re ((_ str.extract 1) var0 (re.++ (re.++ re.begin-anchor (re.++ ((_ re.capture 1) (re.union (re.union ((_ re.capture 2) ((_ re.loop 0 1) (re.range "0" "9"))) ((_ re.capture 3) (re.++ ((_ re.loop 0 1) (re.range "0" "9")) ((_ re.loop 0 1) (re.range "0" "9"))))) ((_ re.capture 4) (re.++ ((_ re.loop 0 1) (re.range "1" "3")) (re.++ ((_ re.loop 0 1) (re.range "0" "6")) ((_ re.loop 0 1) (re.range "0" "5"))))))) (re.++ (str.to.re "d") (re.++ ((_ re.capture 5) (re.union (re.union ((_ re.capture 6) ((_ re.loop 0 1) (re.range "0" "9"))) ((_ re.capture 7) (re.++ (str.to.re "1") ((_ re.loop 0 1) (re.range "0" "9"))))) ((_ re.capture 8) (re.++ ((_ re.loop 0 1) (re.range "1" "2")) ((_ re.loop 0 1) (re.range "0" "3")))))) (re.++ (str.to.re "h") (re.++ ((_ re.capture 9) (re.union ((_ re.capture 10) ((_ re.loop 0 1) (re.range "0" "9"))) ((_ re.capture 11) (re.++ ((_ re.loop 0 1) (re.range "1" "5")) ((_ re.loop 0 1) (re.range "0" "9")))))) (str.to.re "m"))))))) re.end-anchor)) (str.to.re "\x00")))
;match[1]==null
(check-sat)
(get-model)
(pop 1)
(push 1)
(assert (str.in.re var0 (re.* (re.range "\x01" "\xff"))))
(assert (not (str.in.re var0 (re.++ (re.++ re.begin-anchor (re.++ ((_ re.capture 1) (re.union (re.union ((_ re.capture 2) ((_ re.loop 0 1) (re.range "0" "9"))) ((_ re.capture 3) (re.++ ((_ re.loop 0 1) (re.range "0" "9")) ((_ re.loop 0 1) (re.range "0" "9"))))) ((_ re.capture 4) (re.++ ((_ re.loop 0 1) (re.range "1" "3")) (re.++ ((_ re.loop 0 1) (re.range "0" "6")) ((_ re.loop 0 1) (re.range "0" "5"))))))) (re.++ (str.to.re "d") (re.++ ((_ re.capture 5) (re.union (re.union ((_ re.capture 6) ((_ re.loop 0 1) (re.range "0" "9"))) ((_ re.capture 7) (re.++ (str.to.re "1") ((_ re.loop 0 1) (re.range "0" "9"))))) ((_ re.capture 8) (re.++ ((_ re.loop 0 1) (re.range "1" "2")) ((_ re.loop 0 1) (re.range "0" "3")))))) (re.++ (str.to.re "h") (re.++ ((_ re.capture 9) (re.union ((_ re.capture 10) ((_ re.loop 0 1) (re.range "0" "9"))) ((_ re.capture 11) (re.++ ((_ re.loop 0 1) (re.range "1" "5")) ((_ re.loop 0 1) (re.range "0" "9")))))) (str.to.re "m"))))))) re.end-anchor))))	; match == null
(check-sat)
(get-model)
(pop 1)
(exit)
